1 1
2 2
3 1
4 2
5 2
6 1
7 1
8 1
9 1
10 2
11 1
12 2
13 2
14 2
15 2
16 1
17 1
18 2
19 1
20 1
21 1
22 2
23 2
24 2
25 2
26 1
27 1
28 2
29 2
30 2
31 1
32 2
33 2
34 1
35 1
36 1
37 2
38 2
39 1
40 2
41 1
42 2
43 1
44 1
45 1
46 1
47 2
48 2
49 1
50 2
51 1
52 1
53 2
54 1
55 1
56 2
57 1
58 2
59 1
60 2
61 1
62 2
63 2
64 1
65 2
66 1
67 1
68 2
69 2
70 2
71 1
72 1
73 1
74 2
75 1
76 2
77 1
78 2
79 1
80 2
81 2
82 1
83 1
84 1
85 1
86 1
87 1
88 2
89 1
90 1
91 2
92 1
93 2
94 1
95 1
96 1
97 2
98 1
99 1
100 2
101 1
102 2
103 2
104 1
105 1
106 2
107 1
108 1
109 1
110 2
111 1
112 2
113 1
114 2
115 1
116 1
117 2
118 1
119 1
120 1
121 1
122 2
123 1
124 2
125 1
126 1
127 2
128 2
129 1
130 1
131 2
132 1
133 2
134 2
135 1
136 2
137 1
138 2
139 1
140 2
141 1
142 1
143 1
144 1
145 1
146 2
147 2
148 2
149 2
150 2
151 2
152 1
153 1
154 1
155 1
156 2
157 1
158 2
159 2
160 1
161 2
162 2
163 1
164 2
165 1
166 1
167 1
168 2
169 1
170 1
171 2
172 2
173 2
174 2
175 2
176 1
177 1
178 2
179 1
180 2
181 2
182 2
183 1
184 1
185 2
186 2
187 1
188 1
189 2
190 2
191 1
192 2
193 1
194 1
195 2
196 2
197 1
198 1
199 1
200 2
201 1
202 2
203 2
204 1
205 1
206 2
207 1
208 1
209 1
210 1
211 1
212 1
213 1
214 1
215 1
216 2
217 2
218 1
219 2
220 1
221 2
222 1
223 1
224 1
225 2
226 1
227 2
228 1
229 1
230 2
231 2
232 2
233 1
234 1
235 2
236 1
237 1
238 1
239 1
240 2
241 1
242 2
243 2
244 2
245 2
246 1
247 1
248 2
249 1
250 2
251 2
252 1
253 2
254 2
255 2
256 2
257 2
258 2
259 2
260 1
261 2
262 1
263 2
264 1
265 1
266 1
267 1
268 1
269 1
270 2
271 2
272 1
273 1
274 1
275 1
276 2
277 2
278 1
279 1
280 1
281 1
282 2
283 2
284 2
285 1
286 1
287 1
288 2
289 1
290 1
291 1
292 2
293 2
294 2
295 2
296 1
297 1
298 2
299 2
300 1
301 2
302 2
303 2
304 2
305 1
306 2
307 2
308 2
309 1
310 1
311 1
312 2
313 1
314 2
315 2
316 1
317 1
318 1
319 2
320 1
321 2
322 2
323 1
324 1
325 2
326 2
327 1
328 2
329 2
330 2
331 1
332 1
333 2
334 2
335 2
336 2
337 2
338 2
339 1
340 1
341 1
342 1
343 1
344 1
345 1
346 2
347 2
348 1
349 1
350 2
351 1
352 1
353 1
354 1
355 1
356 1
357 1
358 2
359 2
360 1
361 1
362 2
363 1
364 2
365 1
366 1
367 2
368 2
369 1
370 2
371 2
372 1
373 2
374 1
375 2
376 2
377 1
378 1
379 2
380 2
381 1
382 1
383 2
384 1
385 1
386 2
387 2
388 2
389 1
390 1
391 2
392 2
393 2
394 1
395 1
396 1
397 1
398 2
399 1
400 2
401 1
402 1
403 2
404 1
405 1
406 1
407 1
408 2
409 1
410 1
411 1
412 2
413 1
414 2
415 1
416 2
417 2
418 2
419 2
420 2
421 1
422 2
423 2
424 1
425 2
426 2
427 1
428 1
429 2
430 1
431 2
432 1
433 1
434 2
435 1
436 1
437 2
438 2
439 1
440 2
441 1
442 1
443 2
444 2
445 2
446 1
447 1
448 1
449 1
450 2
451 2
452 1
453 2
454 2
455 1
456 1
457 1
458 1
459 2
460 2
461 1
462 1
463 2
464 2
465 1
466 1
467 1
468 2
469 1
470 2
471 2
472 1
473 2
474 2
475 1
476 2
477 2
478 1
479 1
480 1
481 2
482 1
483 1
484 2
485 1
486 2
487 2
488 1
489 2
490 2
491 1
492 1
493 1
494 1
495 1
496 2
497 2
498 2
499 1
500 1
501 2
502 1
503 2
504 1
505 2
506 1
507 1
508 2
509 2
510 2
511 2
512 2
513 1
514 2
515 1
516 2
517 2
518 2
519 2
520 1
521 1
522 2
523 2
524 1
525 2
526 1
527 2
528 1
529 1
530 1
531 1
532 2
533 2
534 1
535 2
536 2
537 1
538 2
539 2
540 2
541 2
542 2
543 1
544 1
545 1
546 1
547 1
548 1
549 1
550 2
551 1
552 1
553 2
554 1
555 2
556 2
557 2
558 2
559 1
560 1
561 2
562 1
563 1
564 2
565 2
566 1
567 1
568 1
569 1
570 1
571 1
572 2
573 2
574 1
575 1
576 2
577 2
578 2
579 2
580 1
581 1
582 1
583 1
584 1
585 1
586 2
587 2
588 2
589 1
590 2
591 1
592 2
593 2
594 1
595 1
596 1
597 2
598 2
599 1
600 1
601 1
602 1
603 2
604 2
605 2
606 2
607 1
608 2
609 2
610 1
611 2
612 1
613 1
614 1
615 2
616 1
617 2
618 1
619 1
620 2
621 1
622 1
623 1
624 2
625 2
626 1
627 1
628 1
629 1
630 2
631 2
632 1
633 2
634 1
635 2
636 2
637 1
638 1
639 2
640 2
641 2
642 2
643 2
644 1
645 2
646 2
647 2
648 2
649 1
650 2
651 2
652 2
653 2
654 2
655 2
656 2
657 2
658 1
659 2
660 2
661 2
662 1
663 1
664 1
665 2
666 2
667 1
668 2
669 1
670 2
671 2
672 2
673 1
674 2
675 2
676 2
677 1
678 1
679 1
680 1
681 1
682 2
683 2
684 2
685 1
686 1
687 1
688 1
689 2
690 1
691 2
692 1
693 2
694 2
695 1
696 2
697 2
698 2
699 2
700 1
701 2
702 2
703 2
704 2
705 2
706 1
707 1
708 1
709 1
710 1
711 1
712 2
713 1
714 2
715 2
716 1
717 1
718 2
719 2
720 1
721 1
722 2
723 1
724 1
725 1
726 2
727 1
728 1
729 2
730 1
731 1
732 2
733 2
734 2
735 2
736 2
737 2
738 2
739 2
740 1
741 2
742 2
743 1
744 1
745 2
746 2
747 2
748 1
749 2
750 2
751 1
752 2
753 2
754 2
755 1
756 2
757 1
758 1
759 2
760 2
761 2
762 1
763 2
764 2
765 1
766 2
767 2
768 2
769 2
770 2
771 2
772 1
773 2
774 1
775 1
776 1
777 1
778 2
779 1
780 2
781 2
782 2
783 1
784 2
785 1
786 2
787 1
788 1
789 2
790 1
791 1
792 1
793 2
794 2
795 2
796 1
797 1
798 2
799 1
800 2
